(declare-fun var0 () String)
(assert (RegexIn var0 (RegexConcat (RegexStar (RegexStar (Str2Reg "^"))) (RegexConcat (RegexUnion (RegexUnion (Str2Reg "@@") (Str2Reg "[[")) (RegexUnion (Str2Reg "\\\\") (Str2Reg "]]"))) (RegexConcat (RegexUnion (RegexUnion (Str2Reg "<") (Str2Reg "==")) (RegexUnion (Str2Reg ">>") (Str2Reg "?"))) (RegexConcat (RegexStar (RegexPlus (Str2Reg ";;;"))) (RegexConcat (RegexPlus (RegexPlus (Str2Reg "::"))) (RegexConcat (RegexStar (RegexStar (Str2Reg "///"))) (RegexConcat (RegexStar (RegexStar (Str2Reg ".."))) (RegexConcat (RegexStar (RegexUnion (Str2Reg ",,") (Str2Reg "--"))) (RegexConcat (RegexUnion (RegexStar (Str2Reg ")))")) (RegexUnion (Str2Reg "*") (Str2Reg "++"))) (RegexConcat (RegexStar (RegexUnion (Str2Reg "'") (Str2Reg "(("))) (RegexConcat (RegexStar (RegexPlus (Str2Reg "&&&"))) (RegexConcat (RegexUnion (RegexStar (Str2Reg "##")) (RegexUnion (Str2Reg "$") (Str2Reg "%%%"))) (RegexConcat (RegexUnion (RegexPlus (Str2Reg "ZZZ")) (RegexUnion (Str2Reg "!!") (Str2Reg "\""))) (RegexConcat (RegexStar (RegexUnion (Str2Reg "X") (Str2Reg "Y"))) (RegexConcat (RegexUnion (RegexStar (Str2Reg "VV")) (RegexPlus (Str2Reg "WW"))) (RegexConcat (RegexUnion (RegexPlus (Str2Reg "S")) (RegexUnion (Str2Reg "T") (Str2Reg "UU"))) (RegexConcat (RegexStar (RegexPlus (Str2Reg "R"))) (RegexConcat (RegexStar (RegexStar (Str2Reg "QQQ"))) (RegexConcat (RegexUnion (RegexPlus (Str2Reg "OO")) (RegexStar (Str2Reg "P"))) (RegexConcat (RegexUnion (RegexStar (Str2Reg "M")) (RegexStar (Str2Reg "N"))) (RegexConcat (RegexStar (RegexStar (Str2Reg "L"))) (RegexConcat (RegexUnion (RegexPlus (Str2Reg "JJ")) (RegexPlus (Str2Reg "KKK"))) (RegexConcat (RegexUnion (RegexStar (Str2Reg "GGG")) (RegexUnion (Str2Reg "HH") (Str2Reg "I"))) (RegexConcat (RegexUnion (RegexStar (Str2Reg "E")) (RegexPlus (Str2Reg "F"))) (RegexConcat (RegexStar (RegexStar (Str2Reg "DDD"))) (RegexConcat (RegexPlus (RegexPlus (Str2Reg "CCC"))) (RegexConcat (RegexUnion (RegexPlus (Str2Reg "A")) (RegexStar (Str2Reg "B"))) (RegexConcat (RegexStar (RegexPlus (Str2Reg "zzz"))) (RegexConcat (RegexUnion (RegexUnion (Str2Reg "www") (Str2Reg "xx")) (RegexStar (Str2Reg "yyy"))) (RegexConcat (RegexPlus (RegexStar (Str2Reg "v"))) (RegexConcat (RegexStar (RegexUnion (Str2Reg "tt") (Str2Reg "uu"))) (RegexConcat (RegexPlus (RegexPlus (Str2Reg "sss"))) (RegexConcat (RegexStar (RegexUnion (Str2Reg "qqq") (Str2Reg "rrr"))) (RegexConcat (RegexPlus (RegexUnion (Str2Reg "o") (Str2Reg "pp"))) (RegexConcat (RegexUnion (RegexStar (Str2Reg "m")) (RegexPlus (Str2Reg "nn"))) (RegexConcat (RegexPlus (RegexStar (Str2Reg "ll"))) (RegexConcat (RegexUnion (RegexPlus (Str2Reg "ii")) (RegexUnion (Str2Reg "jj") (Str2Reg "k"))) (RegexConcat (RegexStar (RegexPlus (Str2Reg "h"))) (RegexConcat (RegexPlus (RegexUnion (Str2Reg "fff") (Str2Reg "gg"))) (RegexConcat (RegexUnion (RegexStar (Str2Reg "d")) (RegexStar (Str2Reg "ee"))) (RegexConcat (RegexUnion (RegexUnion (Str2Reg "aa") (Str2Reg "b")) (RegexPlus (Str2Reg "cc"))) (RegexConcat (RegexPlus (RegexUnion (Str2Reg "888") (Str2Reg "999"))) (RegexConcat (RegexStar (RegexUnion (Str2Reg "666") (Str2Reg "7"))) (RegexConcat (RegexUnion (RegexUnion (Str2Reg "333") (Str2Reg "444")) (RegexStar (Str2Reg "55"))) (RegexConcat (RegexStar (RegexUnion (Str2Reg "111") (Str2Reg "222"))) (RegexConcat (RegexPlus (RegexStar (Str2Reg "00"))) (RegexConcat (RegexUnion (RegexPlus (Str2Reg "||")) (RegexUnion (Str2Reg "}}}") (Str2Reg "~"))) (RegexConcat (RegexStar (RegexUnion (Str2Reg "``") (Str2Reg "{{"))) (RegexConcat (RegexStar (RegexPlus (Str2Reg "___"))) (RegexConcat (RegexStar (RegexStar (Str2Reg "^^"))) (RegexConcat (RegexUnion (RegexUnion (Str2Reg "[") (Str2Reg "\\\\\\")) (RegexStar (Str2Reg "]]"))) (RegexConcat (RegexStar (RegexPlus (Str2Reg "@@@"))) (RegexConcat (RegexStar (RegexUnion (Str2Reg ">>") (Str2Reg "???"))) (RegexConcat (RegexPlus (RegexPlus (Str2Reg "==="))) (RegexConcat (RegexPlus (RegexUnion (Str2Reg ";;") (Str2Reg "<<<"))) (RegexConcat (RegexPlus (RegexStar (Str2Reg ":::"))) (RegexConcat (RegexStar (RegexUnion (Str2Reg "...") (Str2Reg "///"))) (RegexConcat (RegexPlus (RegexUnion (Str2Reg ",") (Str2Reg "---"))) (RegexConcat (RegexUnion (RegexUnion (Str2Reg "(") (Str2Reg "))")) (RegexUnion (Str2Reg "*") (Str2Reg "+"))) (RegexConcat (RegexPlus (RegexUnion (Str2Reg "&&&") (Str2Reg "'''"))) (RegexConcat (RegexStar (RegexUnion (Str2Reg "$$$") (Str2Reg "%"))) (RegexConcat (RegexStar (RegexPlus (Str2Reg "#"))) (RegexConcat (RegexPlus (RegexStar (Str2Reg "\""))) (RegexConcat (RegexUnion (RegexStar (Str2Reg "ZZ")) (RegexStar (Str2Reg "!"))) (RegexConcat (RegexUnion (RegexPlus (Str2Reg "X")) (RegexPlus (Str2Reg "YY"))) (RegexConcat (RegexPlus (RegexUnion (Str2Reg "VVV") (Str2Reg "WWW"))) (RegexConcat (RegexPlus (RegexUnion (Str2Reg "TTT") (Str2Reg "UU"))) (RegexConcat (RegexPlus (RegexUnion (Str2Reg "RR") (Str2Reg "S"))) (RegexConcat (RegexStar (RegexPlus (Str2Reg "QQQ"))) (RegexConcat (RegexPlus (RegexUnion (Str2Reg "OOO") (Str2Reg "PPP"))) (RegexConcat (RegexPlus (RegexStar (Str2Reg "NNN"))) (RegexConcat (RegexUnion (RegexStar (Str2Reg "LL")) (RegexStar (Str2Reg "M"))) (RegexConcat (RegexStar (RegexStar (Str2Reg "K"))) (RegexConcat (RegexStar (RegexUnion (Str2Reg "III") (Str2Reg "J"))) (RegexConcat (RegexStar (RegexUnion (Str2Reg "GG") (Str2Reg "HHH"))) (RegexConcat (RegexUnion (RegexStar (Str2Reg "EE")) (RegexStar (Str2Reg "FFF"))) (RegexConcat (RegexUnion (RegexPlus (Str2Reg "BBB")) (RegexUnion (Str2Reg "CC") (Str2Reg "DDD"))) (RegexConcat (RegexStar (RegexUnion (Str2Reg "z") (Str2Reg "AA"))) (RegexConcat (RegexUnion (RegexStar (Str2Reg "x")) (RegexStar (Str2Reg "yy"))) (RegexConcat (RegexUnion (RegexPlus (Str2Reg "vvv")) (RegexStar (Str2Reg "w"))) (RegexConcat (RegexStar (RegexStar (Str2Reg "u"))) (RegexConcat (RegexStar (RegexPlus (Str2Reg "t"))) (RegexConcat (RegexUnion (RegexUnion (Str2Reg "pp") (Str2Reg "q")) (RegexUnion (Str2Reg "r") (Str2Reg "s"))) (RegexConcat (RegexPlus (RegexUnion (Str2Reg "n") (Str2Reg "oo"))) (RegexConcat (RegexPlus (RegexStar (Str2Reg "mmm"))) (RegexConcat (RegexPlus (RegexStar (Str2Reg "ll"))) (RegexConcat (RegexUnion (RegexPlus (Str2Reg "j")) (RegexStar (Str2Reg "kk"))) (RegexConcat (RegexStar (RegexPlus (Str2Reg "i"))) (RegexConcat (RegexStar (RegexUnion (Str2Reg "ggg") (Str2Reg "hh"))) (RegexConcat (RegexStar (RegexStar (Str2Reg "f"))) (RegexConcat (RegexPlus (RegexUnion (Str2Reg "d") (Str2Reg "e"))) (RegexConcat (RegexStar (RegexUnion (Str2Reg "b") (Str2Reg "cc"))) (RegexConcat (RegexStar (RegexPlus (Str2Reg "aa"))) (RegexConcat (RegexStar (RegexStar (Str2Reg "9"))) (RegexConcat (RegexStar (RegexUnion (Str2Reg "77") (Str2Reg "88"))) (RegexConcat (RegexUnion (RegexPlus (Str2Reg "5")) (RegexStar (Str2Reg "666"))) (RegexConcat (RegexPlus (RegexUnion (Str2Reg "33") (Str2Reg "44"))) (RegexConcat (RegexStar (RegexPlus (Str2Reg "222"))) (RegexPlus (RegexUnion (Str2Reg "00") (Str2Reg "1")))))))))))))))))))))))))))))))))))))))))))))))))))))))))))))))))))))))))))))))))))))))))))))))))))))))
(check-sat)